files/upTests/___simple/set/0003.eprime
language ESSENCE' 1.0

find x_SetExplicit: matrix indexed by [int(1..5)] of int(4..9)
find y_SetOccurrence: matrix indexed by [int(3..7)] of bool
such that
    (sum v__0 : int(3..7) . y_SetOccurrence[v__0]) = 3,
    exists v__0 : int(1..5) . x_SetExplicit[v__0] = 4,
    forAll v__0 : int(1..4) . x_SetExplicit[v__0] < x_SetExplicit[v__0 + 1],
    forAll v__0 : int(3..7)
        . y_SetOccurrence[v__0]
          ->
          (exists v__1 : int(1..5) . x_SetExplicit[v__1] = v__0)
