files/upTests/___simple/set/0003.eprime.solution
language ESSENCE' 1.0
$ minion Nodes: 6
$ minion TotalTime: 0.001205
$ Savile Row TotalTime: 0.449
letting y_SetOccurrence be [false, false, true, true, true;int(3..7)]
letting x_SetExplicit be [4, 5, 6, 7, 8;int(1..5)]
